unsat
( c10
  c14
  c149
  c15
  c16
  c17
  c18
  c19
  c1910
  c1919
  c1925
  c1929
  c1942
  c1951
  c2486
  c2548
  c2578
  c2618
  c2724
  c2779
  c278
  c310
  c3116
  c3121
  c3138
  c3145
  c315
  c4431
  c4437
  c4445
  c4453
  c4465
  c4992
  c5038
  c5084
  c5116
  c5118
  c5127
  c5129
  c5168
  c5171
  c5172
  c5182
  c5183
  c5184
  c5185
  c5188
  c5562
  c5596
  c6012
  c6023
  c6049
  c6097
  c615
  c618
  c6222
  c6230
  c6237
  c6239
  c6255
  c626
  c6268
  c6277
  c6283
  c6289
  c6293
  c6296
  c6303
  c6305
  c631
  c6328
  c6337
  c639
  c647
  c658
  c7
  c7589
  c7607
  c7611
  c7621
  c7623
  c7630
  c7840
  c7847
  c7857
  c7864
  c7874
  c7961
  c7964
  c7965
  c7966
  c7967
  c7976
  c7977
  c7978
  c7981
  c8050
  c8333
  c8395
  c8474
  c8825
  c9 )
